db/inputs/318231444221654221432057717802319573584.smt2
(set-logic QF_FP)
(declare-const x0 (_ FloatingPoint 8 24))
(declare-const x1 (_ FloatingPoint 8 24))
(declare-const x2 (_ FloatingPoint 8 24))
(declare-const x3 (_ FloatingPoint 8 24))
(declare-const x4 (_ FloatingPoint 8 24))
(declare-const x5 (_ FloatingPoint 8 24))
(declare-const x6 (_ FloatingPoint 8 24))
(declare-const x7 (_ FloatingPoint 8 24))
(declare-const x8 (_ FloatingPoint 8 24))
(declare-const x9 (_ FloatingPoint 8 24))
(declare-const x10 (_ FloatingPoint 8 24))
(declare-const x11 (_ FloatingPoint 8 24))
(declare-const x12 (_ FloatingPoint 8 24))
(declare-const x13 (_ FloatingPoint 8 24))
(declare-const x14 (_ FloatingPoint 8 24))
(declare-const x15 (_ FloatingPoint 8 24))
(declare-const x16 (_ FloatingPoint 8 24))
(declare-const x17 (_ FloatingPoint 8 24))
(assert (fp.leq (fp.sub RNE (fp.neg x12) (fp.neg x8)) (fp.div RNE (fp.div RNE x5 x15) (fp.mul RNE x7 x14))))
(assert (fp.geq (fp.sub RNE (fp.sub RNE x11 x4) (fp.add RNE x0 x10)) (fp.div RNE (fp.mul RNE x0 x0) (fp.div RNE x1 x7))))
(assert (fp.eq (fp.sub RNE (fp.mul RNE x14 x3) (fp.add RNE x9 x7)) (fp.mul RNE (fp.sub RNE x3 x0) (fp.add RNE x14 x17))))
(assert (fp.geq (fp.neg (fp.div RNE x6 x6)) (fp.mul RNE (fp.mul RNE x15 x10) (fp.add RNE x14 x16))))
(assert (fp.geq (fp.div RNE (fp.mul RNE x4 x1) (fp.sub RNE x15 x8)) (fp.add RNE (fp.sub RNE x5 x0) (fp.add RNE x14 x17))))
(assert (fp.gt (fp.sub RNE (fp.add RNE x15 x13) (fp.sub RNE x16 x14)) (fp.mul RNE (fp.neg x12) (fp.sub RNE x12 x10))))
(assert (fp.eq (fp.sub RNE (fp.div RNE x8 x12) (fp.div RNE x14 x17)) (fp.add RNE (fp.sub RNE x16 x14) (fp.neg x17))))
(assert (fp.eq (fp.mul RNE (fp.add RNE x4 x15) (fp.mul RNE x10 x8)) (fp.mul RNE (fp.neg x16) (fp.sub RNE x3 x14))))
(assert (fp.geq (fp.sub RNE (fp.div RNE x1 x10) (fp.neg x11)) (fp.div RNE (fp.sub RNE x15 x6) (fp.div RNE x12 x1))))
(check-sat)
