db/data/318231444221654221432057717802319573584.z3.out
sat
-------------------
1549.835349025
